70 2 39 71 78 57 47 34 56 61 21 72 49 29 45 1 58 14 65 32 50 28 11 15 9 12 35 51 17 16 6 46 74 18 66 75 54 44 8 37 27 13 7 22 62 10 52 60 59 20 26 5 64 42 4 0 40 33 38 77 36 53 24 3 48 68 23 19 63 76 43 30 41 73 55 67 25 79 69 31 